job_count = 30 ;
duration = [|17, 8, 7|29, 8, 6|3, 6, 9|7, 7, 5|22, 5, 7|4, 8, 6|12, 11, 5|24, 17, 7|28, 5, 9|28, 19, 9|9, 11, 3|9, 10, 5|27, 11, 7|25, 14, 6|7, 7, 9|18, 8, 7|18, 9, 4|19, 15, 7|18, 5, 9|28, 5, 2|5, 12, 6|24, 19, 3|9, 8, 1|25, 16, 7|9, 14, 8|24, 18, 1|26, 4, 8|20, 16, 6|23, 18, 6|17, 3, 5|] ;
machine_count = 3 ;
cost = [|13, 21, 55|11, 35, 35|15, 25, 43|15, 30, 37|12, 33, 41|11, 22, 34|12, 30, 34|11, 37, 59|15, 26, 57|18, 31, 41|19, 29, 52|17, 28, 46|16, 38, 40|17, 30, 32|17, 37, 57|12, 36, 53|16, 32, 36|10, 27, 54|11, 39, 43|16, 26, 32|10, 37, 47|13, 35, 58|16, 38, 50|10, 35, 56|15, 25, 41|19, 28, 42|10, 28, 31|10, 33, 37|13, 37, 53|18, 32, 32|] ;
deadline = [67, 67, 67, 67, 67, 67, 67, 67, 67, 67, 67, 67, 67, 67, 67, 67, 67, 67, 67, 67, 67, 67, 67, 67, 67, 67, 67, 67, 67, 67] ;
release = [0, 0, 0, 0, 0, 0, 0, 0, 0, 0, 0, 0, 0, 0, 0, 0, 0, 0, 0, 0, 0, 0, 0, 0, 0, 0, 0, 0, 0, 0] ;
resource = [|7, 7, 7|5, 5, 5|6, 6, 6|1, 1, 1|6, 6, 6|5, 5, 5|4, 4, 4|9, 9, 9|1, 1, 1|8, 8, 8|6, 6, 6|8, 8, 8|2, 2, 2|9, 9, 9|6, 6, 6|9, 9, 9|8, 8, 8|4, 4, 4|4, 4, 4|5, 5, 5|9, 9, 9|8, 8, 8|4, 4, 4|4, 4, 4|7, 7, 7|7, 7, 7|9, 9, 9|3, 3, 3|5, 5, 5|4, 4, 4|] ;
capacities = [10, 10, 10] ;
